p cnf 421 292
c p distribution  0.875 0.125
c p distribution  0.875 0.125
c p distribution  0.875 0.125
c p distribution  0.875 0.125
c p distribution  0.875 0.125
c p distribution  0.875 0.125
c p distribution  0.875 0.125
c p distribution  0.875 0.125
c p distribution  0.875 0.125
c p distribution  0.875 0.125
c p distribution  0.875 0.125
c p distribution  0.875 0.125
c p distribution  0.875 0.125
c p distribution  0.875 0.125
c p distribution  0.875 0.125
c p distribution  0.875 0.125
c p distribution  0.875 0.125
c p distribution  0.875 0.125
c p distribution  0.875 0.125
c p distribution  0.875 0.125
c p distribution  0.875 0.125
c p distribution  0.875 0.125
c p distribution  0.875 0.125
c p distribution  0.875 0.125
c p distribution  0.875 0.125
c p distribution  0.875 0.125
c p distribution  0.875 0.125
c p distribution  0.875 0.125
c p distribution  0.875 0.125
c p distribution  0.875 0.125
c p distribution  0.875 0.125
c p distribution  0.875 0.125
c p distribution  0.875 0.125
c p distribution  0.875 0.125
c p distribution  0.875 0.125
c p distribution  0.875 0.125
c p distribution  0.875 0.125
c p distribution  0.875 0.125
c p distribution  0.875 0.125
c p distribution  0.875 0.125
c p distribution  0.875 0.125
c p distribution  0.875 0.125
c p distribution  0.875 0.125
c p distribution  0.875 0.125
c p distribution  0.875 0.125
c p distribution  0.875 0.125
c p distribution  0.875 0.125
c p distribution  0.875 0.125
c p distribution  0.875 0.125
c p distribution  0.875 0.125
c p distribution  0.875 0.125
c p distribution  0.875 0.125
c p distribution  0.875 0.125
c p distribution  0.875 0.125
c p distribution  0.875 0.125
c p distribution  0.875 0.125
c p distribution  0.875 0.125
c p distribution  0.875 0.125
c p distribution  0.875 0.125
c p distribution  0.875 0.125
c p distribution  0.875 0.125
c p distribution  0.875 0.125
c p distribution  0.875 0.125
c p distribution  0.875 0.125
c p distribution  0.875 0.125
c p distribution  0.875 0.125
c p distribution  0.875 0.125
c p distribution  0.875 0.125
c p distribution  0.875 0.125
c p distribution  0.875 0.125
c p distribution  0.875 0.125
c p distribution  0.875 0.125
c p distribution  0.875 0.125
c p distribution  0.875 0.125
c p distribution  0.875 0.125
c p distribution  0.875 0.125
c p distribution  0.875 0.125
c p distribution  0.875 0.125
c p distribution  0.875 0.125
c p distribution  0.875 0.125
c p distribution  0.875 0.125
c p distribution  0.875 0.125
c p distribution  0.875 0.125
c p distribution  0.875 0.125
c p distribution  0.875 0.125
c p distribution  0.875 0.125
c p distribution  0.875 0.125
c p distribution  0.875 0.125
c p distribution  0.875 0.125
c p distribution  0.875 0.125
c p distribution  0.875 0.125
c p distribution  0.875 0.125
c p distribution  0.875 0.125
c p distribution  0.875 0.125
c p distribution  0.875 0.125
c p distribution  0.875 0.125
c p distribution  0.875 0.125
c p distribution  0.875 0.125
c p distribution  0.875 0.125
c p distribution  0.875 0.125
c p distribution  0.875 0.125
c p distribution  0.875 0.125
c p distribution  0.875 0.125
c p distribution  0.875 0.125
c p distribution  0.875 0.125
c p distribution  0.875 0.125
c p distribution  0.875 0.125
c p distribution  0.875 0.125
c p distribution  0.875 0.125
c p distribution  0.875 0.125
c p distribution  0.875 0.125
c p distribution  0.875 0.125
c p distribution  0.875 0.125
c p distribution  0.875 0.125
c p distribution  0.875 0.125
c p distribution  0.875 0.125
c p distribution  0.875 0.125
c p distribution  0.875 0.125
c p distribution  0.875 0.125
c p distribution  0.875 0.125
c p distribution  0.875 0.125
c p distribution  0.875 0.125
c p distribution  0.875 0.125
c p distribution  0.875 0.125
c p distribution  0.875 0.125
c p distribution  0.875 0.125
c p distribution  0.875 0.125
c p distribution  0.875 0.125
c p distribution  0.875 0.125
c p distribution  0.875 0.125
c p distribution  0.875 0.125
c p distribution  0.875 0.125
c p distribution  0.875 0.125
c p distribution  0.875 0.125
c p distribution  0.875 0.125
c p distribution  0.875 0.125
c p distribution  0.875 0.125
c p distribution  0.875 0.125
c p distribution  0.875 0.125
c p distribution  0.875 0.125
c p distribution  0.875 0.125
c p distribution  0.875 0.125
c p distribution  0.875 0.125
c p distribution  0.875 0.125
c p distribution  0.875 0.125
326 0
-412 0
395 -349 -1 0
349 -395 -1 0
403 -326 -3 0
326 -403 -3 0
345 -350 -5 0
350 -345 -5 0
374 -406 -7 0
406 -374 -7 0
396 -339 -9 0
339 -396 -9 0
375 -336 -11 0
336 -375 -11 0
372 -384 -13 0
384 -372 -13 0
350 -391 -15 0
391 -350 -15 0
409 -357 -17 0
357 -409 -17 0
359 -395 -19 0
395 -359 -19 0
398 -366 -21 0
366 -398 -21 0
416 -319 -23 0
319 -416 -23 0
369 -340 -25 0
340 -369 -25 0
309 -372 -27 0
372 -309 -27 0
344 -331 -29 0
331 -344 -29 0
382 -305 -31 0
305 -382 -31 0
308 -380 -33 0
380 -308 -33 0
393 -413 -35 0
413 -393 -35 0
306 -378 -37 0
378 -306 -37 0
333 -362 -39 0
362 -333 -39 0
324 -373 -41 0
373 -324 -41 0
350 -318 -43 0
318 -350 -43 0
407 -346 -45 0
346 -407 -45 0
379 -391 -47 0
391 -379 -47 0
297 -386 -49 0
386 -297 -49 0
344 -355 -51 0
355 -344 -51 0
375 -390 -53 0
390 -375 -53 0
402 -317 -55 0
317 -402 -55 0
344 -331 -57 0
331 -344 -57 0
420 -297 -59 0
297 -420 -59 0
316 -354 -61 0
354 -316 -61 0
354 -411 -63 0
411 -354 -63 0
361 -299 -65 0
299 -361 -65 0
386 -341 -67 0
341 -386 -67 0
338 -392 -69 0
392 -338 -69 0
330 -356 -71 0
356 -330 -71 0
345 -389 -73 0
389 -345 -73 0
389 -298 -75 0
298 -389 -75 0
294 -351 -77 0
351 -294 -77 0
376 -292 -79 0
292 -376 -79 0
325 -337 -81 0
337 -325 -81 0
417 -318 -83 0
318 -417 -83 0
379 -363 -85 0
363 -379 -85 0
406 -335 -87 0
335 -406 -87 0
369 -340 -89 0
340 -369 -89 0
310 -367 -91 0
367 -310 -91 0
388 -331 -93 0
331 -388 -93 0
353 -300 -95 0
300 -353 -95 0
301 -305 -97 0
305 -301 -97 0
303 -310 -99 0
310 -303 -99 0
322 -332 -101 0
332 -322 -101 0
314 -397 -103 0
397 -314 -103 0
309 -322 -105 0
322 -309 -105 0
421 -377 -107 0
377 -421 -107 0
304 -341 -109 0
341 -304 -109 0
389 -403 -111 0
403 -389 -111 0
368 -376 -113 0
376 -368 -113 0
320 -389 -115 0
389 -320 -115 0
293 -413 -117 0
413 -293 -117 0
324 -412 -119 0
412 -324 -119 0
316 -380 -121 0
380 -316 -121 0
291 -405 -123 0
405 -291 -123 0
356 -399 -125 0
399 -356 -125 0
401 -414 -127 0
414 -401 -127 0
367 -329 -129 0
329 -367 -129 0
335 -299 -131 0
299 -335 -131 0
415 -357 -133 0
357 -415 -133 0
416 -352 -135 0
352 -416 -135 0
329 -358 -137 0
358 -329 -137 0
303 -373 -139 0
373 -303 -139 0
347 -376 -141 0
376 -347 -141 0
395 -407 -143 0
407 -395 -143 0
311 -292 -145 0
292 -311 -145 0
420 -386 -147 0
386 -420 -147 0
340 -333 -149 0
333 -340 -149 0
324 -412 -151 0
412 -324 -151 0
349 -359 -153 0
359 -349 -153 0
296 -302 -155 0
302 -296 -155 0
333 -341 -157 0
341 -333 -157 0
298 -370 -159 0
370 -298 -159 0
418 -410 -161 0
410 -418 -161 0
360 -358 -163 0
358 -360 -163 0
393 -313 -165 0
313 -393 -165 0
394 -390 -167 0
390 -394 -167 0
374 -294 -169 0
294 -374 -169 0
388 -304 -171 0
304 -388 -171 0
371 -392 -173 0
392 -371 -173 0
389 -353 -175 0
353 -389 -175 0
409 -346 -177 0
346 -409 -177 0
327 -315 -179 0
315 -327 -179 0
328 -311 -181 0
311 -328 -181 0
293 -322 -183 0
322 -293 -183 0
296 -305 -185 0
305 -296 -185 0
348 -354 -187 0
354 -348 -187 0
389 -364 -189 0
364 -389 -189 0
362 -380 -191 0
380 -362 -191 0
414 -394 -193 0
394 -414 -193 0
324 -300 -195 0
300 -324 -195 0
295 -415 -197 0
415 -295 -197 0
392 -419 -199 0
419 -392 -199 0
309 -332 -201 0
332 -309 -201 0
301 -382 -203 0
382 -301 -203 0
389 -342 -205 0
342 -389 -205 0
391 -307 -207 0
307 -391 -207 0
371 -410 -209 0
410 -371 -209 0
298 -353 -211 0
353 -298 -211 0
346 -357 -213 0
357 -346 -213 0
373 -300 -215 0
300 -373 -215 0
330 -312 -217 0
312 -330 -217 0
389 -355 -219 0
355 -389 -219 0
355 -360 -221 0
360 -355 -221 0
301 -295 -223 0
295 -301 -223 0
298 -334 -225 0
334 -298 -225 0
309 -365 -227 0
365 -309 -227 0
325 -402 -229 0
402 -325 -229 0
327 -383 -231 0
383 -327 -231 0
380 -316 -233 0
316 -380 -233 0
319 -411 -235 0
411 -319 -235 0
358 -343 -237 0
343 -358 -237 0
323 -326 -239 0
326 -323 -239 0
378 -321 -241 0
321 -378 -241 0
297 -351 -243 0
351 -297 -243 0
381 -365 -245 0
365 -381 -245 0
302 -344 -247 0
344 -302 -247 0
328 -318 -249 0
318 -328 -249 0
332 -364 -251 0
364 -332 -251 0
365 -397 -253 0
397 -365 -253 0
360 -358 -255 0
358 -360 -255 0
337 -383 -257 0
383 -337 -257 0
410 -292 -259 0
292 -410 -259 0
298 -387 -261 0
387 -298 -261 0
342 -373 -263 0
373 -342 -263 0
420 -409 -265 0
409 -420 -265 0
310 -408 -267 0
408 -310 -267 0
315 -359 -269 0
359 -315 -269 0
405 -398 -271 0
398 -405 -271 0
291 -398 -273 0
398 -291 -273 0
372 -397 -275 0
397 -372 -275 0
313 -334 -277 0
334 -313 -277 0
349 -361 -279 0
361 -349 -279 0
382 -404 -281 0
404 -382 -281 0
400 -312 -283 0
312 -400 -283 0
384 -377 -285 0
377 -384 -285 0
390 -411 -287 0
411 -390 -287 0
377 -309 -289 0
309 -377 -289 0

